725 370 700 500
875 920 700 580
720 635 685 595
685 595 685 610
770 610 720 635
975 580 770 610
880 660 795 645
1740 245 1170 65
1250 400 1215 245
845 680 1320 315
845 655 1220 580
685 610 1740 245
700 580 1530 5
830 610 1465 200
835 625 1340 725
1170 65 1605 620
830 485 595 360
700 500 560 365
520 585 605 625
565 575 575 665
420 555 830 610
480 415 835 625
560 365 845 655
300 465 480 415
25 230 410 250
25 185 300 465
660 180 520 585
415 635 565 575
145 665 420 555
795 645 415 635
555 815 345 750
1220 580 145 665
1215 245 475 960
1320 315 525 1000
1530 5 760 650
1465 200 845 680
1340 725 880 660
595 360 945 685
410 250 975 580
605 625 555 815
575 665 510 875
345 750 650 1130
1150 1160 580 1175
95 260 95 260
475 960 25 230
510 875 25 185
760 650 660 180
650 1130 725 370
580 1175 875 920
525 1000 1150 1160
1605 620 1250 400
945 685 830 485
725 370 700 500